n = 26;
lu = [|-445, -409
      |441, 547
      |-312, -213
      |-405, 630
      |179, 274
      |-245, -240
      |-381, 126
      |-408, -343
      |-292, 565
      |-620, -264
      |-185, 157
      |-534, -482
      |-32, 184
      |-411, -315
      |361, 388
      |-122, 578
      |-200, 243
      |-407, -267
      |-649, -94
      |-144, 620
      |-515, 389
      |-105, 416
      |-423, 503
      |-333, 178
      |-263, 77
      |-610, -535|];
